<number of tasks>
50

<cycle time>
1000

<order strength>
0.195


<task times>
1 127
2 190
3 150
4 105
5 124
6 81
7 156
8 181
9 58
10 69
11 53
12 29
13 183
14 114
15 220
16 190
17 146
18 118
19 41
20 149
21 189
22 100
23 360
24 68
25 257
26 228
27 104
28 103
29 118
30 68
31 185
32 35
33 134
34 96
35 238
36 28
37 126
38 26
39 94
40 242
41 72
42 62
43 123
44 93
45 358
46 58
47 71
48 116
49 274
50 177

<precedence relations>
1,5
2,8
2,9
2,16
4,6
4,7
4,9
5,12
6,10
7,11
7,13
10,14
11,15
11,19
12,16
12,18
12,25
13,17
13,18
14,21
15,24
16,20
17,22
17,26
18,23
19,25
19,27
19,28
20,29
21,36
22,30
23,32
24,34
25,31
25,33
26,35
26,37
27,44
29,38
30,39
31,40
32,43
33,41
34,44
35,42
38,45
39,46
40,47
41,48
42,49
44,50

<end>
